Tasks lengths
[40, 52, 52, 58, 64, 65, 67, 67, 69, 77, 77, 84, 89, 89, 93, 96, 98, 102, 102, 103, 113, 115, 115, 120, 123, 133, 139, 145, 146, 153, 176, 178, 221, 257, 261, 266, 293, 364, 391, 502]
12
Set parameter Username
Set parameter Threads to value 1
Academic license - for non-commercial use only - expires 2022-07-11
Set parameter TimeLimit to value 300
Gurobi Optimizer version 9.5.1 build v9.5.1rc2 (linux64)
Thread count: 2 physical cores, 4 logical processors, using up to 1 threads
Optimize a model with 536 rows, 492 columns and 1954 nonzeros
Model fingerprint: 0xf6faa1ea
Model has 480 quadratic objective terms
Variable types: 12 continuous, 480 integer (480 binary)
Coefficient statistics:
  Matrix range     [1e+00, 5e+02]
  Objective range  [0e+00, 0e+00]
  QObjective range [6e-04, 5e-03]
  Bounds range     [1e+00, 1e+00]
  RHS range        [1e+00, 8e+02]
Presolve removed 230 rows and 212 columns
Presolve time: 0.05s
Presolved: 574 rows, 548 columns, 1893 nonzeros
Variable types: 0 continuous, 548 integer (268 binary)

Root relaxation: objective 0.000000e+00, 155 iterations, 0.00 seconds (0.00 work units)

    Nodes    |    Current Node    |     Objective Bounds      |     Work
 Expl Unexpl |  Obj  Depth IntInf | Incumbent    BestBd   Gap | It/Node Time

     0     0    0.00000    0   52          -    0.00000      -     -    0s
     0     0    0.00000    0   59          -    0.00000      -     -    0s
H    0     0                       3.7870054    0.00000   100%     -    0s
     0     0    0.00000    0   59    3.78701    0.00000   100%     -    0s
     0     0    0.04576    0   50    3.78701    0.04576  98.8%     -    0s
H    0     0                       3.7847178    0.04576  98.8%     -    0s
H    0     0                       3.7831816    0.04576  98.8%     -    0s
H    0     0                       3.4364616    0.04576  98.7%     -    0s
     0     0    0.04576    0   48    3.43646    0.04576  98.7%     -    0s
     0     0    0.37135    0   58    3.43646    0.37135  89.2%     -    0s
H    0     0                       3.4324662    0.37135  89.2%     -    0s
H    0     0                       3.1341132    0.37135  88.2%     -    0s
     0     0    0.37135    0   59    3.13411    0.37135  88.2%     -    0s
     0     0    0.93172    0   67    3.13411    0.93172  70.3%     -    0s
     0     0    0.94569    0   62    3.13411    0.94569  69.8%     -    0s
     0     0    1.43793    0   81    3.13411    1.43793  54.1%     -    0s
H    0     0                       2.8046553    1.43793  48.7%     -    0s
     0     0    1.44468    0   78    2.80466    1.44468  48.5%     -    0s
     0     0    1.69566    0   89    2.80466    1.69566  39.5%     -    0s
     0     0    1.69566    0   79    2.80466    1.69566  39.5%     -    0s
H    0     0                       2.7560193    1.69566  38.5%     -    0s
H    0     0                       2.7381560    1.76122  35.7%     -    0s
H    0     0                       2.7316064    1.76122  35.5%     -    0s
     0     2    1.77031    0   79    2.73161    1.77031  35.2%     -    0s
H   27    26                       2.6777234    1.79650  32.9%  30.0    0s
H  156   113                       2.6747439    1.85283  30.7%  17.0    0s
H  164   121                       2.6707201    1.85283  30.6%  16.5    0s
H  711   387                       2.6561087    2.34008  11.9%  26.2    2s
H 1542   491                       2.6459487    2.38164  10.0%  23.7    3s
H 1906   569                       2.6370351    2.40208  8.91%  23.6    4s
H 2033   581                       2.6216156    2.41009  8.07%  23.5    4s
H 2044   478                       2.5995576    2.41109  7.25%  23.5    4s
H 2093   329                       2.5579005    2.41207  5.70%  23.2    4s
  2320   370    2.55123   32   82    2.55790    2.42451  5.21%  23.1    5s

Cutting planes:
  Gomory: 8
  Cover: 39
  Implied bound: 244
  Projected implied bound: 10
  Clique: 1
  MIR: 67
  StrongCG: 4
  Flow cover: 396
  GUB cover: 10
  RLT: 5
  Relax-and-lift: 28

Explored 4511 nodes (118053 simplex iterations) in 9.20 seconds (6.67 work units)
Thread count was 1 (of 4 available processors)

Solution count 10: 2.5579 2.59956 2.62162 ... 2.73161

Optimal solution found (tolerance 1.00e-04)
Best objective 2.557900537765e+00, best bound 2.557754763651e+00, gap 0.0057%
